SECTION Graph
Nodes 398
Edges 788
E 1 348 8
E 1 349 7
E 2 3 14
E 2 350 8
E 3 4 1
E 3 353 8
E 4 354 8
E 5 6 1
E 6 7 14
E 7 8 1
E 8 171 45
E 9 10 1
E 9 338 7
E 9 348 15
E 10 11 14
E 10 350 15
E 11 12 1
E 11 353 15
E 12 354 15
E 13 14 1
E 13 312 7
E 13 313 6
E 14 15 14
E 14 314 6
E 15 16 1
E 15 319 6
E 16 320 6
E 17 18 1
E 17 302 7
E 17 313 17
E 18 19 14
E 18 314 17
E 19 20 1
E 19 319 17
E 20 320 17
E 21 22 1
E 21 256 9
E 21 259 7
E 22 23 14
E 22 258 9
E 23 24 1
E 23 262 9
E 24 263 9
E 25 26 1
E 25 245 7
E 25 256 14
E 26 27 14
E 26 258 14
E 27 28 1
E 27 262 14
E 28 263 14
E 29 30 1
E 29 344 7
E 29 345 1
E 30 31 14
E 30 346 1
E 31 32 1
E 31 351 1
E 32 352 1
E 33 34 1
E 33 332 7
E 33 333 1
E 33 339 8
E 34 35 14
E 34 335 1
E 34 340 8
E 35 36 1
E 35 341 1
E 35 347 8
E 36 343 1
E 36 348 7
E 36 349 8
E 37 38 1
E 37 317 50
E 37 326 7
E 37 329 8
E 38 39 14
E 38 318 50
E 38 330 8
E 39 40 1
E 39 321 50
E 39 336 8
E 40 322 50
E 40 338 8
E 41 42 1
E 41 296 9
E 41 300 7
E 41 304 6
E 42 43 14
E 42 299 9
E 42 307 6
E 43 44 1
E 43 305 9
E 43 311 6
E 44 308 9
E 44 312 6
E 44 313 7
E 45 46 1
E 45 264 59
E 45 288 7
E 45 292 6
E 46 47 14
E 46 265 59
E 46 294 6
E 47 48 1
E 47 270 59
E 47 301 6
E 48 302 6
E 49 50 1
E 49 102 7
E 49 248 14
E 49 264 23
E 50 51 14
E 50 249 14
E 50 265 23
E 51 52 1
E 51 257 14
E 51 270 23
E 52 259 14
E 53 54 1
E 53 106 7
E 53 235 14
E 53 248 9
E 54 55 14
E 54 237 14
E 54 249 9
E 55 56 1
E 55 243 14
E 55 257 9
E 56 245 14
E 56 256 7
E 56 259 9
E 57 58 1
E 57 110 7
E 57 221 31
E 57 235 9
E 58 222 31
E 58 236 8
E 58 237 9
E 59 60 1
E 59 236 6
E 59 243 9
E 60 245 9
E 61 62 14
E 61 214 8
E 62 222 8
E 62 236 31
E 63 64 1
E 63 114 8
E 63 334 22
E 64 65 14
E 64 337 22
E 65 66 1
E 65 342 22
E 66 344 22
E 67 68 1
E 67 327 22
E 67 334 1
E 68 69 14
E 68 328 22
E 68 337 1
E 69 70 1
E 69 331 22
E 69 342 1
E 70 332 22
E 70 344 1
E 70 345 7
E 71 72 1
E 71 323 22
E 71 327 1
E 72 73 14
E 72 324 22
E 72 328 1
E 73 74 1
E 73 325 22
E 73 331 1
E 74 326 22
E 74 332 1
E 74 333 7
E 75 76 1
E 75 309 47
E 75 323 1
E 76 77 14
E 76 310 47
E 76 324 1
E 77 78 1
E 77 315 47
E 77 325 1
E 78 316 47
E 78 326 1
E 79 80 1
E 79 83 23
E 79 306 7
E 79 309 2
E 80 81 14
E 80 84 23
E 80 310 2
E 81 82 1
E 81 85 23
E 81 315 2
E 82 86 23
E 82 316 2
E 82 317 7
E 83 84 1
E 83 289 14
E 83 293 7
E 84 85 14
E 84 290 14
E 85 86 1
E 85 298 14
E 86 300 14
E 86 304 15
E 87 88 1
E 87 279 14
E 87 282 7
E 87 289 9
E 88 89 14
E 88 280 14
E 88 290 9
E 89 90 1
E 89 287 14
E 89 298 9
E 90 288 14
E 90 296 7
E 90 300 9
E 91 92 1
E 91 95 50
E 91 273 7
E 91 277 1
E 92 93 14
E 92 96 50
E 92 278 1
E 93 94 1
E 93 97 50
E 93 283 1
E 94 98 50
E 94 284 1
E 95 96 1
E 95 251 7
E 95 253 2
E 96 97 14
E 96 255 2
E 97 98 1
E 97 260 2
E 98 261 2
E 98 264 7
E 99 100 1
E 99 103 23
E 99 253 21
E 100 101 14
E 100 104 23
E 100 255 21
E 101 102 1
E 101 242 14
E 101 260 21
E 102 244 14
E 102 261 21
E 103 104 1
E 103 107 23
E 104 105 14
E 104 108 23
E 105 106 1
E 105 231 14
E 105 242 9
E 106 232 14
E 106 244 9
E 107 108 1
E 107 209 31
E 108 109 14
E 108 210 31
E 109 110 1
E 109 219 31
E 109 231 9
E 110 220 31
E 110 232 9
E 111 112 1
E 112 113 14
E 113 114 1
E 115 116 1
E 115 254 99
E 115 295 2
E 116 117 14
E 116 297 2
E 117 118 1
E 117 303 2
E 118 306 2
E 118 309 7
E 119 120 1
E 119 206 99
E 119 240 2
E 120 121 14
E 120 241 2
E 121 122 1
E 121 250 2
E 122 251 2
E 122 253 7
E 123 124 1
E 123 226 7
E 123 227 1
E 123 233 22
E 124 125 14
E 124 228 1
E 124 234 22
E 125 126 1
E 125 229 1
E 125 238 22
E 126 230 1
E 126 239 22
E 126 267 76
E 127 128 1
E 127 131 46
E 127 246 2
E 128 129 14
E 128 132 46
E 128 247 2
E 129 130 1
E 129 133 46
E 129 252 2
E 130 134 46
E 130 254 2
E 130 295 99
E 131 132 1
E 131 217 22
E 131 224 7
E 132 133 14
E 132 218 22
E 133 134 1
E 133 225 22
E 134 226 22
E 134 233 7
E 135 136 1
E 135 203 52
E 135 217 1
E 136 137 14
E 136 204 52
E 136 218 1
E 137 138 1
E 137 205 52
E 137 225 1
E 138 206 52
E 138 226 1
E 138 227 7
E 139 140 1
E 139 215 49
E 140 141 14
E 140 216 49
E 141 142 1
E 141 223 49
E 142 224 49
E 142 246 8
E 143 144 1
E 143 178 7
E 143 179 6
E 143 185 15
E 144 145 14
E 144 180 6
E 144 186 15
E 145 146 1
E 145 181 6
E 145 191 15
E 146 183 6
E 146 192 15
E 147 148 1
E 147 179 15
E 148 149 14
E 148 180 15
E 149 150 1
E 149 181 15
E 150 183 15
E 151 152 1
E 151 175 15
E 151 187 28
E 152 153 14
E 152 176 15
E 152 188 28
E 153 154 1
E 153 177 15
E 153 182 3
E 154 178 15
E 154 184 3
E 154 185 7
E 155 156 1
E 155 175 6
E 156 157 14
E 156 176 6
E 157 158 1
E 157 177 6
E 158 178 6
E 158 179 7
E 159 160 1
E 159 163 21
E 159 193 14
E 160 161 14
E 160 164 21
E 160 194 14
E 161 162 1
E 161 165 21
E 161 199 14
E 162 166 21
E 162 197 7
E 162 200 14
E 163 164 1
E 164 165 14
E 165 166 1
E 166 187 7
E 167 168 1
E 167 174 16
E 168 169 14
E 169 170 1
E 170 193 76
E 171 172 1
E 172 173 14
E 173 174 1
E 175 176 1
E 176 177 14
E 177 178 1
E 179 180 1
E 180 181 14
E 181 183 1
E 182 184 1
E 182 189 14
E 184 190 14
E 184 207 352
E 185 186 1
E 186 191 14
E 187 188 1
E 187 197 21
E 188 195 14
E 188 198 21
E 189 190 1
E 189 195 11
E 190 196 11
E 190 209 352
E 191 192 1
E 192 203 306
E 192 207 332
E 192 215 358
E 193 194 1
E 194 199 14
E 195 196 1
E 195 201 21
E 196 202 21
E 197 198 1
E 198 201 14
E 199 200 1
E 200 203 289
E 200 215 341
E 201 202 1
E 202 203 280
E 202 215 332
E 203 204 1
E 204 205 14
E 205 206 1
E 207 208 1
E 207 209 14
E 208 210 14
E 208 211 14
E 209 210 1
E 210 219 14
E 211 212 1
E 211 219 14
E 212 213 7
E 212 220 14
E 213 214 1
E 213 221 14
E 214 222 14
E 215 216 1
E 216 223 14
E 217 218 1
E 218 225 14
E 219 220 1
E 220 221 7
E 221 222 1
E 223 224 1
E 225 226 1
E 227 228 1
E 228 229 14
E 229 230 1
E 230 266 76
E 231 232 1
E 232 235 7
E 233 234 1
E 234 238 14
E 235 237 1
E 237 243 14
E 238 239 1
E 239 275 76
E 240 241 1
E 240 266 50
E 241 250 14
E 241 268 50
E 242 244 1
E 243 245 1
E 244 248 7
E 246 247 1
E 247 252 14
E 248 249 1
E 249 257 14
E 250 251 1
E 250 271 50
E 251 273 50
E 252 254 1
E 253 255 1
E 255 260 14
E 256 258 1
E 257 259 1
E 258 262 14
E 260 261 1
E 262 263 1
E 264 265 1
E 265 270 14
E 266 267 1
E 266 268 1
E 267 269 1
E 267 275 22
E 268 269 1
E 268 271 14
E 269 272 14
E 269 276 22
E 271 272 1
E 271 273 1
E 272 274 1
E 272 281 22
E 273 274 1
E 274 277 7
E 274 282 22
E 275 276 1
E 275 285 23
E 276 281 14
E 276 286 23
E 277 278 1
E 277 279 8
E 278 280 8
E 278 283 14
E 279 280 1
E 280 287 14
E 281 282 1
E 281 291 23
E 282 293 23
E 283 284 1
E 283 287 8
E 284 288 8
E 285 286 1
E 285 295 23
E 286 291 14
E 286 297 23
E 287 288 1
E 289 290 1
E 290 298 14
E 291 293 1
E 291 303 23
E 292 294 1
E 292 296 8
E 293 306 23
E 294 299 8
E 294 301 14
E 295 297 1
E 296 299 1
E 297 303 14
E 298 300 1
E 299 305 14
E 301 302 1
E 301 305 8
E 302 308 8
E 303 306 1
E 304 307 1
E 304 317 31
E 305 308 1
E 307 311 14
E 307 318 31
E 309 310 1
E 310 315 14
E 311 312 1
E 311 321 31
E 312 322 31
E 313 314 1
E 314 319 14
E 315 316 1
E 317 318 1
E 318 321 14
E 319 320 1
E 321 322 1
E 323 324 1
E 324 325 14
E 325 326 1
E 327 328 1
E 328 331 14
E 329 330 1
E 329 333 14
E 330 335 14
E 330 336 14
E 331 332 1
E 333 335 1
E 334 337 1
E 335 341 14
E 336 338 1
E 336 341 14
E 337 342 14
E 338 343 14
E 339 340 1
E 339 345 14
E 340 346 14
E 340 347 14
E 341 343 1
E 342 344 1
E 345 346 1
E 346 351 14
E 347 349 1
E 347 351 14
E 348 350 1
E 349 352 14
E 350 353 14
E 351 352 1
E 353 354 1
E 1 355 100000
E 2 355 100000
E 3 355 100000
E 4 355 100000
E 5 356 100000
E 6 356 100000
E 7 356 100000
E 8 356 100000
E 9 357 100000
E 10 357 100000
E 11 357 100000
E 12 357 100000
E 13 358 100000
E 14 358 100000
E 15 358 100000
E 16 358 100000
E 17 359 100000
E 18 359 100000
E 19 359 100000
E 20 359 100000
E 21 360 100000
E 22 360 100000
E 23 360 100000
E 24 360 100000
E 25 361 100000
E 26 361 100000
E 27 361 100000
E 28 361 100000
E 29 362 100000
E 30 362 100000
E 31 362 100000
E 32 362 100000
E 33 363 100000
E 34 363 100000
E 35 363 100000
E 36 363 100000
E 37 364 100000
E 38 364 100000
E 39 364 100000
E 40 364 100000
E 41 365 100000
E 42 365 100000
E 43 365 100000
E 44 365 100000
E 45 366 100000
E 46 366 100000
E 47 366 100000
E 48 366 100000
E 49 367 100000
E 50 367 100000
E 51 367 100000
E 52 367 100000
E 53 368 100000
E 54 368 100000
E 55 368 100000
E 56 368 100000
E 57 369 100000
E 58 369 100000
E 59 369 100000
E 60 369 100000
E 61 370 100000
E 62 370 100000
E 63 371 100000
E 64 371 100000
E 65 371 100000
E 66 371 100000
E 67 372 100000
E 68 372 100000
E 69 372 100000
E 70 372 100000
E 71 373 100000
E 72 373 100000
E 73 373 100000
E 74 373 100000
E 75 374 100000
E 76 374 100000
E 77 374 100000
E 78 374 100000
E 79 375 100000
E 80 375 100000
E 81 375 100000
E 82 375 100000
E 83 376 100000
E 84 376 100000
E 85 376 100000
E 86 376 100000
E 87 377 100000
E 88 377 100000
E 89 377 100000
E 90 377 100000
E 91 378 100000
E 92 378 100000
E 93 378 100000
E 94 378 100000
E 95 379 100000
E 96 379 100000
E 97 379 100000
E 98 379 100000
E 99 380 100000
E 100 380 100000
E 101 380 100000
E 102 380 100000
E 103 381 100000
E 104 381 100000
E 105 381 100000
E 106 381 100000
E 107 382 100000
E 108 382 100000
E 109 382 100000
E 110 382 100000
E 111 383 100000
E 112 383 100000
E 113 383 100000
E 114 383 100000
E 115 384 100000
E 116 384 100000
E 117 384 100000
E 118 384 100000
E 119 385 100000
E 120 385 100000
E 121 385 100000
E 122 385 100000
E 123 386 100000
E 124 386 100000
E 125 386 100000
E 126 386 100000
E 127 387 100000
E 128 387 100000
E 129 387 100000
E 130 387 100000
E 131 388 100000
E 132 388 100000
E 133 388 100000
E 134 388 100000
E 135 389 100000
E 136 389 100000
E 137 389 100000
E 138 389 100000
E 139 390 100000
E 140 390 100000
E 141 390 100000
E 142 390 100000
E 143 391 100000
E 144 391 100000
E 145 391 100000
E 146 391 100000
E 147 392 100000
E 148 392 100000
E 149 392 100000
E 150 392 100000
E 151 393 100000
E 152 393 100000
E 153 393 100000
E 154 393 100000
E 155 394 100000
E 156 394 100000
E 157 394 100000
E 158 394 100000
E 159 395 100000
E 160 395 100000
E 161 395 100000
E 162 395 100000
E 163 396 100000
E 164 396 100000
E 165 396 100000
E 166 396 100000
E 167 397 100000
E 168 397 100000
E 169 397 100000
E 170 397 100000
E 171 398 100000
E 172 398 100000
E 173 398 100000
E 174 398 100000
END

SECTION Terminals
Terminals 44
T 355
T 356
T 357
T 358
T 359
T 360
T 361
T 362
T 363
T 364
T 365
T 366
T 367
T 368
T 369
T 370
T 371
T 372
T 373
T 374
T 375
T 376
T 377
T 378
T 379
T 380
T 381
T 382
T 383
T 384
T 385
T 386
T 387
T 388
T 389
T 390
T 391
T 392
T 393
T 394
T 395
T 396
T 397
T 398
END

SECTION Tree Decomposition
c We do not guarantee that this tree decomposition has minimum width.
s td 337 17 398
b 1 5 6 356
b 2 111 112 383
b 3 370 61 62
b 4 6 7 356
b 5 112 383 113
b 6 7 356 8
b 7 8 171
b 8 383 113 114
b 9 114 63
b 10 171 172 398
b 11 172 173 398
b 12 173 398 174
b 13 174 167
b 14 167 168 397
b 15 168 169 397
b 16 169 397 170
b 17 170 193
b 18 61 214 62
b 19 193 194 159
b 20 24 263 23 360
b 21 28 27 361 263
b 22 32 31 362 352
b 23 139 140 390 215
b 24 147 148 392 179
b 25 155 394 156 175
b 26 163 164 396 159
b 27 12 354 11 357
b 28 150 392 149 183
b 29 48 366 47 302
b 30 194 159 160 199
b 31 52 367 259 51
b 32 4 3 354 355
b 33 214 62 222 213
b 34 60 369 59 245
b 35 16 358 15 320
b 36 62 222 236 213
b 37 63 371 64 334
b 38 66 65 371 344
b 39 2 3 350 355
b 40 20 320 19 359
b 41 3 353 354 350 355
b 42 353 354 11 350 355
b 43 354 11 357 350 355
b 44 11 10 357 350 355
b 45 10 357 350 355 9
b 46 350 355 9 348
b 47 355 9 1 348
b 48 9 1 348 338
b 49 1 348 349 338
b 50 348 349 36 338
b 51 182 153 189 184
b 52 343 36 341 338
b 53 186 144 191 185
b 54 196 195 190 202
b 55 197 162 187 198
b 56 201 198 195 202
b 57 204 136 205 203
b 58 206 205 138 119
b 59 208 207 211 210
b 60 212 213 220 211
b 61 216 140 223 215
b 62 140 141 390 223 215
b 63 141 390 223 142 215
b 64 223 142 224 215
b 65 142 224 246 215
b 66 224 246 131 215
b 67 217 135 218 131
b 68 227 228 123 138
b 69 229 230 125 228
b 70 231 232 109 105
b 71 323 71 324 75
b 72 233 234 123 134
b 73 238 239 125 234
b 74 240 241 119 266
b 75 242 244 105 101
b 76 247 128 246 252
b 77 254 252 130 115
b 78 261 260 98 102
b 79 270 47 51 265
b 80 284 288 94 283
b 81 285 295 286 275
b 82 289 290 83 87
b 83 292 294 296 45
b 84 308 44 302 305
b 85 279 277 87 280
b 86 316 78 315 82
b 87 322 40 312 321
b 88 327 67 328 71
b 89 329 333 330 37
b 90 339 340 345 33
b 91 366 46 47 302 45
b 92 358 15 14 320 13
b 93 15 14 319 320 13
b 94 14 319 320 314 13
b 95 319 320 19 314 13
b 96 320 19 359 314 13
b 97 19 18 359 314 13
b 98 18 359 314 13 17
b 99 314 13 313 17
b 100 13 313 17 312
b 101 313 17 44 312
b 102 17 44 302 312
b 103 376 84 85 86 83
b 104 27 361 26 262 263
b 105 361 26 262 263 25
b 106 26 262 263 258 25
b 107 262 263 23 258 25
b 108 263 23 360 258 25
b 109 23 22 360 258 25
b 110 22 360 258 21 25
b 111 258 21 256 25
b 112 21 256 25 259
b 113 256 25 56 259
b 114 25 56 259 245
b 115 31 362 30 352 351
b 116 362 30 352 351 29
b 117 30 352 351 346 29
b 118 375 81 79 82 80
b 119 352 351 346 29 349
b 120 351 346 29 347 349
b 121 394 156 157 175 158
b 122 156 157 176 175 158
b 123 157 176 175 158 177
b 124 385 120 121 122 119
b 125 120 121 241 122 119
b 126 121 241 250 122 119
b 127 148 392 149 180 179
b 128 392 149 180 183 179
b 129 149 180 181 183 179
b 130 395 159 160 161 162
b 131 372 68 69 67 70
b 132 373 72 73 71 74
b 133 391 145 144 146 143
b 134 65 371 64 342 344
b 135 371 64 342 334 344
b 136 64 342 334 337 344
b 137 377 88 89 90 87
b 138 342 334 337 69 344
b 139 334 337 69 67 344
b 140 337 68 69 67 344
b 141 379 97 96 95 98
b 142 389 137 136 135 138
b 143 384 116 117 118 115
b 144 382 108 109 110 107
b 145 116 117 297 118 115
b 146 117 297 303 118 115
b 147 176 175 158 177 152
b 148 175 158 177 152 151
b 149 180 181 183 144 179
b 150 181 183 145 144 179
b 151 183 145 144 146 179
b 152 365 44 43 42 41
b 153 368 56 55 53 54
b 154 367 50 259 49 51
b 155 164 396 165 159 160
b 156 396 165 159 160 166
b 157 165 159 160 161 166
b 158 159 160 161 166 199 162
b 159 166 199 162 187
b 160 199 162 187 200
b 161 162 187 198 200
b 162 393 154 153 152 151
b 163 364 38 39 40 37
b 164 374 77 78 75 76
b 165 388 133 131 132 134
b 166 222 236 213 221 58
b 167 387 127 129 128 130
b 168 380 100 99 101 102
b 169 236 213 221 59 58
b 170 363 35 36 34 33
b 171 381 103 105 104 106
b 172 378 93 92 91 94
b 173 386 124 125 126 123
b 174 68 69 67 328 70 344
b 175 145 144 146 191 143 179
b 176 144 146 191 143 179 185
b 177 124 125 126 228 234 123
b 178 69 67 328 331 70 344
b 179 67 328 331 71 70 344
b 180 146 191 143 179 185 192
b 181 143 179 185 178 192
b 182 179 185 178 158 192
b 183 185 178 158 154 192
b 184 178 158 177 154 192
b 185 158 177 154 152 151 192
b 186 177 154 153 152 151 192
b 187 328 331 72 71 70 344
b 188 154 153 152 151 184 192
b 189 153 152 151 189 184 192
b 190 187 198 151 188 200
b 191 369 59 58 57 245
b 192 239 125 126 234 275
b 193 230 125 126 228 266
b 194 346 29 347 340 345 349
b 195 152 151 188 189 184 192
b 196 29 347 340 345 349 344
b 197 347 340 345 349 35 344
b 198 88 290 89 90 87 280
b 199 127 129 128 246 131 130
b 200 137 136 135 205 138 225
b 201 46 47 294 302 45 265
b 202 198 195 151 188 202 200
b 203 213 221 59 58 220 211
b 204 221 59 58 57 220 211
b 205 241 250 268 122 119 266
b 206 297 295 303 118 286 115
b 207 129 128 246 252 133 131 130
b 208 128 246 252 133 131 132 130
b 209 246 252 133 131 132 130 215
b 210 252 133 131 132 130 115 215
b 211 125 126 228 234 123 275 266
b 212 126 228 234 123 267 275 266
b 213 228 234 123 267 138 275 266
b 214 234 123 267 134 138 275 266
b 215 123 226 267 134 138 275 266
b 216 226 267 134 138 225 275 266
b 217 340 345 349 35 34 33 344
b 218 345 349 35 34 33 70 344
b 219 195 151 188 189 190 202 200
b 220 136 135 205 218 138 225 203
b 221 135 205 218 131 138 225 203
b 222 205 218 131 138 225 119 203
b 223 218 131 132 138 225 119 203
b 224 267 134 138 225 275 266 269
b 225 151 188 189 184 190 202 192 200
b 226 184 190 202 192 200 207
b 227 190 202 192 200 207 209
b 228 202 192 200 207 209 203 215
b 229 207 209 211 210 203 215
b 230 209 211 210 107 203 215
b 231 293 282 291 83 306
b 232 264 45 49 98 265
b 233 300 298 86 41 90
b 234 299 294 296 42 305
b 235 273 251 271 91 274
b 236 332 331 33 70 74
b 237 276 286 275 269 281
b 238 272 271 269 281 274
b 239 326 78 325 74 37
b 240 336 341 338 330 39
b 241 301 47 294 302 305
b 242 237 58 54 235 243
b 243 253 122 99 95 255
b 244 249 50 257 54 248
b 245 317 304 37 318 82
b 246 335 34 341 333 330
b 247 219 220 211 210 109
b 248 278 277 92 280 283
b 249 287 288 89 280 283
b 250 311 43 307 312 321
b 251 310 76 315 80 309
b 252 81 79 315 82 80 85
b 253 97 96 260 93 95 98
b 254 38 330 39 40 37 318
b 255 84 80 85 86 290 83
b 256 56 55 259 53 54 245
b 257 55 257 259 53 54 243 245
b 258 77 78 325 75 76 315
b 259 47 294 302 305 45 51 265
b 260 59 58 57 220 211 243 245
b 261 96 260 93 92 95 98 255
b 262 331 72 73 71 33 70 74 344
b 263 72 73 71 324 33 70 74 344
b 264 73 71 324 325 33 70 74 344
b 265 71 324 325 75 33 70 74 344
b 266 324 325 75 76 33 70 74 344
b 267 58 57 220 211 54 235 243 245
b 268 57 220 211 110 54 235 243 245
b 269 108 210 109 110 107 104
b 270 103 107 105 104 106 99
b 271 244 105 106 248 101 102
b 272 232 109 110 105 106 235
b 273 100 104 99 101 102 255
b 274 295 303 118 286 130 115 275
b 275 250 268 251 271 122 119 266
b 276 268 251 271 122 119 266 269
b 277 349 35 36 34 338 33 70 344
b 278 35 36 34 341 338 33 70 344
b 279 34 341 338 333 330 33 70 344
b 280 341 338 333 330 39 33 70 344
b 281 338 333 330 39 40 33 70 344
b 282 333 330 39 40 33 70 74 344 37
b 283 330 39 40 33 70 74 344 37 318
b 284 39 40 33 70 74 344 37 318 321
b 285 40 33 70 74 344 37 318 312 321
b 286 294 296 302 42 305 45 51 265
b 287 298 85 86 290 41 89 90
b 288 133 131 132 134 225 130 115 215
b 289 303 118 286 291 130 115 275 306
b 290 118 286 291 130 115 275 306 309
b 291 44 43 302 42 305 41 312
b 292 43 302 42 305 307 41 312 321
b 293 288 89 90 45 94 280 283
b 294 277 92 87 91 274 280 283
b 295 304 37 318 82 86 307 41
b 296 260 93 92 95 98 101 102 255
b 297 286 291 130 115 275 269 281 306 309
b 298 220 211 210 109 110 54 235 243 245
b 299 282 291 281 83 87 274 306
b 300 50 257 259 54 248 49 51 265
b 301 78 325 75 76 74 37 315 82
b 302 325 75 76 33 70 74 344 37 315 82
b 303 75 76 33 70 74 344 37 315 82 309
b 304 76 33 70 74 344 37 315 82 80 309
b 305 131 132 134 138 225 130 115 119 203 215
b 306 134 138 225 130 115 275 119 266 269 203 215
b 307 79 315 82 80 85 83 306 309
b 308 296 302 42 305 41 90 45 51 265
b 309 257 259 53 54 243 245 248 49 51 265
b 310 53 106 54 235 243 245 248 49 51 265
b 311 33 70 74 344 37 318 315 82 80 312 321 309
b 312 37 318 315 82 80 86 307 41 312 321 309
b 313 251 271 122 119 266 269 91 95 274
b 314 271 122 119 266 269 281 91 95 274
b 315 122 119 266 269 281 99 91 95 255 274
b 316 302 42 305 307 41 312 321 90 45 51 265
b 317 315 82 80 85 86 307 41 312 321 83 306 309
b 318 80 85 86 290 307 41 312 321 83 306 309
b 319 85 86 290 307 41 312 321 89 90 83 306 309
b 320 290 307 41 312 321 89 90 83 87 280 306 309
b 321 93 92 91 94 95 98 101 102 255 283
b 322 291 130 115 275 269 281 83 87 274 306 309
b 323 92 87 91 94 95 98 101 102 255 274 280 283
b 324 211 210 109 110 107 54 235 243 245 203 215
b 325 210 109 110 107 104 54 235 243 245 203 215
b 326 109 110 107 105 104 106 54 235 243 245 203 215
b 327 107 105 104 106 54 235 243 245 99 203 215
b 328 105 104 106 54 235 243 245 248 99 203 215 101 102
b 329 104 106 54 235 243 245 248 99 203 215 101 102 255
b 330 307 41 312 321 89 90 45 51 83 87 265 280 306 309
b 331 89 90 45 51 83 87 94 265 280 283 306 309
b 332 45 49 51 83 87 94 98 265 280 283 306 309
b 333 106 54 235 243 245 248 99 203 215 49 51 101 102 255 265
b 334 130 115 275 119 266 269 281 203 215 83 87 274 306 309
b 335 119 266 269 281 99 203 215 83 87 91 95 255 274 306 309
b 336 99 203 215 49 51 83 87 91 95 101 102 255 265 274 306 309
b 337 49 51 83 87 91 94 95 98 101 102 255 265 274 280 283 306 309
1 4
4 6
6 7
7 10
10 11
11 12
12 13
13 14
14 15
15 16
16 17
17 19
19 30
30 158
158 130
158 157
157 156
156 155
158 159
159 160
155 26
160 161
161 55
161 190
190 202
202 219
219 225
225 195
225 226
195 189
226 227
189 188
227 228
188 186
186 185
185 184
184 183
183 182
182 181
181 180
180 176
176 175
175 133
175 151
151 150
150 149
149 129
129 128
128 127
188 162
228 229
229 230
230 324
324 325
325 326
326 327
327 328
328 329
329 333
333 310
333 336
336 337
336 335
337 323
337 332
335 334
332 331
334 322
331 330
330 320
320 319
319 318
318 317
317 312
335 315
323 321
334 306
330 316
312 311
311 304
304 303
303 302
316 308
315 314
311 285
306 305
322 297
314 313
285 284
284 283
324 298
283 282
310 309
317 307
321 296
316 292
302 266
302 301
308 286
305 288
297 290
298 268
282 281
309 300
266 265
290 289
268 267
281 280
265 264
280 279
264 263
263 262
331 293
322 299
319 287
312 295
306 224
305 223
313 276
309 257
296 261
292 291
286 259
288 210
267 260
279 278
278 277
289 274
224 216
223 222
276 275
210 209
277 218
216 215
222 221
209 208
218 217
215 214
221 220
208 207
214 213
213 212
212 211
323 294
320 198
318 255
283 254
307 252
325 269
301 258
326 272
327 270
262 187
257 256
261 253
259 201
260 204
329 273
274 206
275 205
217 197
328 271
207 199
220 200
211 177
187 179
204 203
197 196
179 178
196 194
178 174
315 243
321 172
304 251
255 103
314 238
297 237
313 235
298 247
292 250
301 239
286 234
288 165
300 154
300 244
267 242
280 240
279 246
263 132
262 236
293 249
299 231
287 233
295 245
291 152
259 241
260 191
278 170
211 193
211 192
294 248
254 163
198 137
252 118
269 144
258 164
270 171
256 153
253 141
201 91
273 168
206 146
205 126
199 167
200 142
177 173
203 169
194 120
174 131
174 140
146 145
126 125
169 166
120 119
145 143
140 139
125 124
119 117
139 138
332 232
117 116
138 136
185 148
116 115
136 135
135 134
148 147
147 123
123 122
122 121
115 22
134 38
135 37
121 25
320 82
202 56
176 53
219 54
128 28
127 24
229 59
285 87
282 89
296 78
301 86
286 83
265 71
189 51
293 80
291 84
291 102
259 79
210 77
278 52
277 50
274 81
222 58
209 66
221 67
208 76
217 90
214 72
220 57
213 68
191 34
294 85
272 70
256 114
205 74
271 75
179 88
203 60
154 31
193 69
192 73
91 29
102 101
166 36
36 33
50 49
66 65
101 100
49 48
48 47
47 46
46 45
45 44
44 43
43 42
42 41
43 27
41 32
41 39
114 113
113 112
112 111
111 110
110 109
109 108
108 107
107 106
106 105
105 104
104 21
108 20
65 64
64 63
63 62
62 23
62 61
100 99
99 98
98 97
97 96
96 95
95 94
94 93
93 92
96 40
92 35
33 18
18 3
37 9
9 8
8 5
5 2
END

EOF
